runtime_files/mcpf.tsp
NAME : mtspf
COMMENT : file for mtspf test
TYPE : ATSP
DIMENSION : 64
EDGE_WEIGHT_TYPE : EXPLICIT
EDGE_WEIGHT_FORMAT : FULL_MATRIX
EDGE_WEIGHT_SECTION
999999 999999 999999 999999 999999 312 999999 999999 999999 311 999999 999999 999999 999999 313 999999 999999 999999 999999 307 999999 999999 999999 999999 306 999999 999999 999999 999999 309 999999 999999 999999 999999 305 999999 999999 999999 999999 313 999999 999999 999999 999999 309 999999 999999 999999 999999 317 999999 999999 999999 999999 308 999999 999999 999999 999999 312 999999 999999 999999 999999 
999999 999999 999999 999999 999999 999999 315 999999 999999 999999 311 999999 999999 999999 999999 313 999999 999999 999999 999999 307 999999 999999 999999 999999 306 999999 999999 999999 999999 307 999999 999999 999999 999999 305 999999 999999 999999 999999 311 999999 999999 999999 999999 307 999999 999999 999999 999999 315 999999 999999 999999 999999 308 999999 999999 999999 999999 315 999999 999999 999999 
999999 999999 999999 999999 999999 999999 999999 312 999999 999999 999999 311 999999 999999 999999 999999 313 999999 999999 999999 999999 307 999999 999999 999999 999999 306 999999 999999 999999 999999 305 999999 999999 999999 999999 307 999999 999999 999999 999999 311 999999 999999 999999 999999 305 999999 999999 999999 999999 313 999999 999999 999999 999999 308 999999 999999 999999 999999 312 999999 999999 
999999 999999 999999 999999 999999 999999 999999 999999 310 999999 999999 999999 313 999999 999999 999999 999999 313 999999 999999 999999 999999 317 999999 999999 999999 999999 316 999999 999999 999999 999999 313 999999 999999 999999 999999 317 999999 999999 999999 999999 309 999999 999999 999999 999999 313 999999 999999 999999 999999 305 999999 999999 999999 999999 316 999999 999999 999999 999999 310 999999 
999999 999999 999999 999999 999999 999999 999999 999999 999999 999999 999999 999999 999999 315 999999 999999 999999 999999 313 999999 999999 999999 999999 319 999999 999999 999999 999999 318 999999 999999 999999 999999 315 999999 999999 999999 999999 319 999999 999999 999999 999999 311 999999 999999 999999 999999 315 999999 999999 999999 999999 307 999999 999999 999999 999999 318 999999 999999 999999 999999 312 
999999 999999 999999 999999 999999 0 999999 999999 999999 309 999999 999999 999999 999999 311 999999 999999 999999 999999 311 999999 999999 999999 999999 310 999999 999999 999999 999999 307 999999 999999 999999 999999 311 999999 999999 999999 999999 309 999999 999999 999999 999999 307 999999 999999 999999 999999 309 999999 999999 999999 999999 310 999999 999999 999999 999999 304 999999 999999 999999 999999 
999999 999999 999999 999999 999999 999999 0 999999 999999 999999 312 999999 999999 999999 999999 310 999999 999999 999999 999999 316 999999 999999 999999 999999 315 999999 999999 999999 999999 312 999999 999999 999999 999999 316 999999 999999 999999 999999 308 999999 999999 999999 999999 312 999999 999999 999999 999999 308 999999 999999 999999 999999 315 999999 999999 999999 999999 304 999999 999999 999999 
999999 999999 999999 999999 999999 999999 999999 0 999999 999999 999999 307 999999 999999 999999 999999 305 999999 999999 999999 999999 311 999999 999999 999999 999999 314 999999 999999 999999 999999 313 999999 999999 999999 999999 313 999999 999999 999999 999999 313 999999 999999 999999 999999 311 999999 999999 999999 999999 313 999999 999999 999999 999999 310 999999 999999 999999 999999 304 999999 999999 
999999 999999 999999 999999 999999 999999 999999 999999 0 999999 999999 999999 307 999999 999999 999999 999999 307 999999 999999 999999 999999 311 999999 999999 999999 999999 312 999999 999999 999999 999999 311 999999 999999 999999 999999 311 999999 999999 999999 999999 311 999999 999999 999999 999999 309 999999 999999 999999 999999 311 999999 999999 999999 999999 310 999999 999999 999999 999999 304 999999 
999999 999999 999999 999999 999999 999999 312 999999 999999 999999 0 999999 999999 999999 999999 306 999999 999999 999999 999999 308 999999 999999 999999 999999 313 999999 999999 999999 999999 312 999999 999999 999999 999999 312 999999 999999 999999 999999 312 999999 999999 999999 999999 310 999999 999999 999999 999999 312 999999 999999 999999 999999 307 999999 999999 999999 999999 312 999999 999999 999999 
999999 999999 999999 999999 999999 999999 999999 307 999999 999999 999999 0 999999 999999 999999 999999 306 999999 999999 999999 999999 308 999999 999999 999999 999999 313 999999 999999 999999 999999 312 999999 999999 999999 999999 312 999999 999999 999999 999999 312 999999 999999 999999 999999 310 999999 999999 999999 999999 312 999999 999999 999999 999999 307 999999 999999 999999 999999 307 999999 999999 
999999 999999 999999 999999 999999 999999 999999 999999 307 999999 999999 999999 0 999999 999999 999999 999999 306 999999 999999 999999 999999 308 999999 999999 999999 999999 313 999999 999999 999999 999999 312 999999 999999 999999 999999 312 999999 999999 999999 999999 312 999999 999999 999999 999999 310 999999 999999 999999 999999 312 999999 999999 999999 999999 307 999999 999999 999999 999999 307 999999 
999999 999999 999999 999999 999999 999999 999999 999999 999999 999999 999999 999999 999999 0 999999 999999 999999 999999 306 999999 999999 999999 999999 308 999999 999999 999999 999999 313 999999 999999 999999 999999 312 999999 999999 999999 999999 312 999999 999999 999999 999999 312 999999 999999 999999 999999 310 999999 999999 999999 999999 312 999999 999999 999999 999999 307 999999 999999 999999 999999 307 
999999 999999 999999 999999 999999 309 999999 999999 999999 0 999999 999999 999999 999999 306 999999 999999 999999 999999 308 999999 999999 999999 999999 313 999999 999999 999999 999999 312 999999 999999 999999 999999 312 999999 999999 999999 999999 312 999999 999999 999999 999999 310 999999 999999 999999 999999 312 999999 999999 999999 999999 307 999999 999999 999999 999999 309 999999 999999 999999 999999 
999999 999999 999999 999999 999999 999999 310 999999 999999 999999 306 999999 999999 999999 999999 0 999999 999999 999999 999999 310 999999 999999 999999 999999 315 999999 999999 999999 999999 314 999999 999999 999999 999999 314 999999 999999 999999 999999 314 999999 999999 999999 999999 312 999999 999999 999999 999999 314 999999 999999 999999 999999 309 999999 999999 999999 999999 310 999999 999999 999999 
999999 999999 999999 999999 999999 999999 999999 305 999999 999999 999999 306 999999 999999 999999 999999 0 999999 999999 999999 999999 310 999999 999999 999999 999999 315 999999 999999 999999 999999 314 999999 999999 999999 999999 314 999999 999999 999999 999999 314 999999 999999 999999 999999 312 999999 999999 999999 999999 314 999999 999999 999999 999999 309 999999 999999 999999 999999 305 999999 999999 
999999 999999 999999 999999 999999 999999 999999 999999 307 999999 999999 999999 306 999999 999999 999999 999999 0 999999 999999 999999 999999 310 999999 999999 999999 999999 315 999999 999999 999999 999999 314 999999 999999 999999 999999 314 999999 999999 999999 999999 314 999999 999999 999999 999999 312 999999 999999 999999 999999 314 999999 999999 999999 999999 309 999999 999999 999999 999999 307 999999 
999999 999999 999999 999999 999999 999999 999999 999999 999999 999999 999999 999999 999999 306 999999 999999 999999 999999 0 999999 999999 999999 999999 310 999999 999999 999999 999999 315 999999 999999 999999 999999 314 999999 999999 999999 999999 314 999999 999999 999999 999999 314 999999 999999 999999 999999 312 999999 999999 999999 999999 314 999999 999999 999999 999999 309 999999 999999 999999 999999 309 
999999 999999 999999 999999 999999 311 999999 999999 999999 306 999999 999999 999999 999999 0 999999 999999 999999 999999 310 999999 999999 999999 999999 315 999999 999999 999999 999999 314 999999 999999 999999 999999 314 999999 999999 999999 999999 314 999999 999999 999999 999999 312 999999 999999 999999 999999 314 999999 999999 999999 999999 309 999999 999999 999999 999999 311 999999 999999 999999 999999 
999999 999999 999999 999999 999999 999999 316 999999 999999 999999 308 999999 999999 999999 999999 310 999999 999999 999999 999999 0 999999 999999 999999 999999 309 999999 999999 999999 999999 308 999999 999999 999999 999999 308 999999 999999 999999 999999 314 999999 999999 999999 999999 308 999999 999999 999999 999999 316 999999 999999 999999 999999 305 999999 999999 999999 999999 316 999999 999999 999999 
999999 999999 999999 999999 999999 999999 999999 311 999999 999999 999999 308 999999 999999 999999 999999 310 999999 999999 999999 999999 0 999999 999999 999999 999999 309 999999 999999 999999 999999 308 999999 999999 999999 999999 308 999999 999999 999999 999999 314 999999 999999 999999 999999 308 999999 999999 999999 999999 316 999999 999999 999999 999999 305 999999 999999 999999 999999 311 999999 999999 
999999 999999 999999 999999 999999 999999 999999 999999 311 999999 999999 999999 308 999999 999999 999999 999999 310 999999 999999 999999 999999 0 999999 999999 999999 999999 309 999999 999999 999999 999999 308 999999 999999 999999 999999 308 999999 999999 999999 999999 314 999999 999999 999999 999999 308 999999 999999 999999 999999 316 999999 999999 999999 999999 305 999999 999999 999999 999999 311 999999 
999999 999999 999999 999999 999999 999999 999999 999999 999999 999999 999999 999999 999999 308 999999 999999 999999 999999 310 999999 999999 999999 999999 0 999999 999999 999999 999999 309 999999 999999 999999 999999 308 999999 999999 999999 999999 308 999999 999999 999999 999999 314 999999 999999 999999 999999 308 999999 999999 999999 999999 316 999999 999999 999999 999999 305 999999 999999 999999 999999 311 
999999 999999 999999 999999 999999 311 999999 999999 999999 308 999999 999999 999999 999999 310 999999 999999 999999 999999 0 999999 999999 999999 999999 309 999999 999999 999999 999999 308 999999 999999 999999 999999 308 999999 999999 999999 999999 314 999999 999999 999999 999999 308 999999 999999 999999 999999 316 999999 999999 999999 999999 305 999999 999999 999999 999999 311 999999 999999 999999 999999 
999999 999999 999999 999999 999999 999999 315 999999 999999 999999 313 999999 999999 999999 999999 315 999999 999999 999999 999999 309 999999 999999 999999 999999 0 999999 999999 999999 999999 307 999999 999999 999999 999999 305 999999 999999 999999 999999 311 999999 999999 999999 999999 307 999999 999999 999999 999999 315 999999 999999 999999 999999 310 999999 999999 999999 999999 315 999999 999999 999999 
999999 999999 999999 999999 999999 999999 999999 314 999999 999999 999999 313 999999 999999 999999 999999 315 999999 999999 999999 999999 309 999999 999999 999999 999999 0 999999 999999 999999 999999 307 999999 999999 999999 999999 305 999999 999999 999999 999999 311 999999 999999 999999 999999 307 999999 999999 999999 999999 315 999999 999999 999999 999999 310 999999 999999 999999 999999 314 999999 999999 
999999 999999 999999 999999 999999 999999 999999 999999 312 999999 999999 999999 313 999999 999999 999999 999999 315 999999 999999 999999 999999 309 999999 999999 999999 999999 0 999999 999999 999999 999999 307 999999 999999 999999 999999 305 999999 999999 999999 999999 311 999999 999999 999999 999999 307 999999 999999 999999 999999 315 999999 999999 999999 999999 310 999999 999999 999999 999999 312 999999 
999999 999999 999999 999999 999999 999999 999999 999999 999999 999999 999999 999999 999999 313 999999 999999 999999 999999 315 999999 999999 999999 999999 309 999999 999999 999999 999999 0 999999 999999 999999 999999 307 999999 999999 999999 999999 305 999999 999999 999999 999999 311 999999 999999 999999 999999 307 999999 999999 999999 999999 315 999999 999999 999999 999999 310 999999 999999 999999 999999 310 
999999 999999 999999 999999 999999 310 999999 999999 999999 313 999999 999999 999999 999999 315 999999 999999 999999 999999 309 999999 999999 999999 999999 0 999999 999999 999999 999999 307 999999 999999 999999 999999 305 999999 999999 999999 999999 311 999999 999999 999999 999999 307 999999 999999 999999 999999 315 999999 999999 999999 999999 310 999999 999999 999999 999999 310 999999 999999 999999 999999 
999999 999999 999999 999999 999999 999999 312 999999 999999 999999 312 999999 999999 999999 999999 314 999999 999999 999999 999999 308 999999 999999 999999 999999 307 999999 999999 999999 999999 0 999999 999999 999999 999999 308 999999 999999 999999 999999 310 999999 999999 999999 999999 306 999999 999999 999999 999999 312 999999 999999 999999 999999 309 999999 999999 999999 999999 312 999999 999999 999999 
999999 999999 999999 999999 999999 999999 999999 313 999999 999999 999999 312 999999 999999 999999 999999 314 999999 999999 999999 999999 308 999999 999999 999999 999999 307 999999 999999 999999 999999 0 999999 999999 999999 999999 308 999999 999999 999999 999999 310 999999 999999 999999 999999 306 999999 999999 999999 999999 312 999999 999999 999999 999999 309 999999 999999 999999 999999 313 999999 999999 
999999 999999 999999 999999 999999 999999 999999 999999 311 999999 999999 999999 312 999999 999999 999999 999999 314 999999 999999 999999 999999 308 999999 999999 999999 999999 307 999999 999999 999999 999999 0 999999 999999 999999 999999 308 999999 999999 999999 999999 310 999999 999999 999999 999999 306 999999 999999 999999 999999 312 999999 999999 999999 999999 309 999999 999999 999999 999999 311 999999 
999999 999999 999999 999999 999999 999999 999999 999999 999999 999999 999999 999999 999999 312 999999 999999 999999 999999 314 999999 999999 999999 999999 308 999999 999999 999999 999999 307 999999 999999 999999 999999 0 999999 999999 999999 999999 308 999999 999999 999999 999999 310 999999 999999 999999 999999 306 999999 999999 999999 999999 312 999999 999999 999999 999999 309 999999 999999 999999 999999 309 
999999 999999 999999 999999 999999 307 999999 999999 999999 312 999999 999999 999999 999999 314 999999 999999 999999 999999 308 999999 999999 999999 999999 307 999999 999999 999999 999999 0 999999 999999 999999 999999 308 999999 999999 999999 999999 310 999999 999999 999999 999999 306 999999 999999 999999 999999 312 999999 999999 999999 999999 309 999999 999999 999999 999999 307 999999 999999 999999 999999 
999999 999999 999999 999999 999999 999999 316 999999 999999 999999 312 999999 999999 999999 999999 314 999999 999999 999999 999999 308 999999 999999 999999 999999 305 999999 999999 999999 999999 308 999999 999999 999999 999999 0 999999 999999 999999 999999 312 999999 999999 999999 999999 308 999999 999999 999999 999999 316 999999 999999 999999 999999 309 999999 999999 999999 999999 316 999999 999999 999999 
999999 999999 999999 999999 999999 999999 999999 313 999999 999999 999999 312 999999 999999 999999 999999 314 999999 999999 999999 999999 308 999999 999999 999999 999999 305 999999 999999 999999 999999 308 999999 999999 999999 999999 0 999999 999999 999999 999999 312 999999 999999 999999 999999 308 999999 999999 999999 999999 316 999999 999999 999999 999999 309 999999 999999 999999 999999 313 999999 999999 
999999 999999 999999 999999 999999 999999 999999 999999 311 999999 999999 999999 312 999999 999999 999999 999999 314 999999 999999 999999 999999 308 999999 999999 999999 999999 305 999999 999999 999999 999999 308 999999 999999 999999 999999 0 999999 999999 999999 999999 312 999999 999999 999999 999999 308 999999 999999 999999 999999 316 999999 999999 999999 999999 309 999999 999999 999999 999999 311 999999 
999999 999999 999999 999999 999999 999999 999999 999999 999999 999999 999999 999999 999999 312 999999 999999 999999 999999 314 999999 999999 999999 999999 308 999999 999999 999999 999999 305 999999 999999 999999 999999 308 999999 999999 999999 999999 0 999999 999999 999999 999999 312 999999 999999 999999 999999 308 999999 999999 999999 999999 316 999999 999999 999999 999999 309 999999 999999 999999 999999 311 
999999 999999 999999 999999 999999 311 999999 999999 999999 312 999999 999999 999999 999999 314 999999 999999 999999 999999 308 999999 999999 999999 999999 305 999999 999999 999999 999999 308 999999 999999 999999 999999 0 999999 999999 999999 999999 312 999999 999999 999999 999999 308 999999 999999 999999 999999 316 999999 999999 999999 999999 309 999999 999999 999999 999999 311 999999 999999 999999 999999 
999999 999999 999999 999999 999999 999999 308 999999 999999 999999 312 999999 999999 999999 999999 314 999999 999999 999999 999999 314 999999 999999 999999 999999 311 999999 999999 999999 999999 310 999999 999999 999999 999999 312 999999 999999 999999 999999 0 999999 999999 999999 999999 312 999999 999999 999999 999999 308 999999 999999 999999 999999 315 999999 999999 999999 999999 308 999999 999999 999999 
999999 999999 999999 999999 999999 999999 999999 313 999999 999999 999999 312 999999 999999 999999 999999 314 999999 999999 999999 999999 314 999999 999999 999999 999999 311 999999 999999 999999 999999 310 999999 999999 999999 999999 312 999999 999999 999999 999999 0 999999 999999 999999 999999 312 999999 999999 999999 999999 308 999999 999999 999999 999999 315 999999 999999 999999 999999 313 999999 999999 
999999 999999 999999 999999 999999 999999 999999 999999 311 999999 999999 999999 312 999999 999999 999999 999999 314 999999 999999 999999 999999 314 999999 999999 999999 999999 311 999999 999999 999999 999999 310 999999 999999 999999 999999 312 999999 999999 999999 999999 0 999999 999999 999999 999999 312 999999 999999 999999 999999 308 999999 999999 999999 999999 315 999999 999999 999999 999999 311 999999 
999999 999999 999999 999999 999999 999999 999999 999999 999999 999999 999999 999999 999999 312 999999 999999 999999 999999 314 999999 999999 999999 999999 314 999999 999999 999999 999999 311 999999 999999 999999 999999 310 999999 999999 999999 999999 312 999999 999999 999999 999999 0 999999 999999 999999 999999 312 999999 999999 999999 999999 308 999999 999999 999999 999999 315 999999 999999 999999 999999 309 
999999 999999 999999 999999 999999 309 999999 999999 999999 312 999999 999999 999999 999999 314 999999 999999 999999 999999 314 999999 999999 999999 999999 311 999999 999999 999999 999999 310 999999 999999 999999 999999 312 999999 999999 999999 999999 0 999999 999999 999999 999999 312 999999 999999 999999 999999 308 999999 999999 999999 999999 315 999999 999999 999999 999999 309 999999 999999 999999 999999 
999999 999999 999999 999999 999999 999999 312 999999 999999 999999 310 999999 999999 999999 999999 312 999999 999999 999999 999999 308 999999 999999 999999 999999 307 999999 999999 999999 999999 306 999999 999999 999999 999999 308 999999 999999 999999 999999 312 999999 999999 999999 999999 0 999999 999999 999999 999999 312 999999 999999 999999 999999 307 999999 999999 999999 999999 312 999999 999999 999999 
999999 999999 999999 999999 999999 999999 999999 311 999999 999999 999999 310 999999 999999 999999 999999 312 999999 999999 999999 999999 308 999999 999999 999999 999999 307 999999 999999 999999 999999 306 999999 999999 999999 999999 308 999999 999999 999999 999999 312 999999 999999 999999 999999 0 999999 999999 999999 999999 312 999999 999999 999999 999999 307 999999 999999 999999 999999 311 999999 999999 
999999 999999 999999 999999 999999 999999 999999 999999 309 999999 999999 999999 310 999999 999999 999999 999999 312 999999 999999 999999 999999 308 999999 999999 999999 999999 307 999999 999999 999999 999999 306 999999 999999 999999 999999 308 999999 999999 999999 999999 312 999999 999999 999999 999999 0 999999 999999 999999 999999 312 999999 999999 999999 999999 307 999999 999999 999999 999999 309 999999 
999999 999999 999999 999999 999999 999999 999999 999999 999999 999999 999999 999999 999999 310 999999 999999 999999 999999 312 999999 999999 999999 999999 308 999999 999999 999999 999999 307 999999 999999 999999 999999 306 999999 999999 999999 999999 308 999999 999999 999999 999999 312 999999 999999 999999 999999 0 999999 999999 999999 999999 312 999999 999999 999999 999999 307 999999 999999 999999 999999 307 
999999 999999 999999 999999 999999 307 999999 999999 999999 310 999999 999999 999999 999999 312 999999 999999 999999 999999 308 999999 999999 999999 999999 307 999999 999999 999999 999999 306 999999 999999 999999 999999 308 999999 999999 999999 999999 312 999999 999999 999999 999999 0 999999 999999 999999 999999 312 999999 999999 999999 999999 307 999999 999999 999999 999999 307 999999 999999 999999 999999 
999999 999999 999999 999999 999999 999999 308 999999 999999 999999 312 999999 999999 999999 999999 314 999999 999999 999999 999999 316 999999 999999 999999 999999 315 999999 999999 999999 999999 312 999999 999999 999999 999999 316 999999 999999 999999 999999 308 999999 999999 999999 999999 312 999999 999999 999999 999999 0 999999 999999 999999 999999 315 999999 999999 999999 999999 308 999999 999999 999999 
999999 999999 999999 999999 999999 999999 999999 313 999999 999999 999999 312 999999 999999 999999 999999 314 999999 999999 999999 999999 316 999999 999999 999999 999999 315 999999 999999 999999 999999 312 999999 999999 999999 999999 316 999999 999999 999999 999999 308 999999 999999 999999 999999 312 999999 999999 999999 999999 0 999999 999999 999999 999999 315 999999 999999 999999 999999 313 999999 999999 
999999 999999 999999 999999 999999 999999 999999 999999 311 999999 999999 999999 312 999999 999999 999999 999999 314 999999 999999 999999 999999 316 999999 999999 999999 999999 315 999999 999999 999999 999999 312 999999 999999 999999 999999 316 999999 999999 999999 999999 308 999999 999999 999999 999999 312 999999 999999 999999 999999 0 999999 999999 999999 999999 315 999999 999999 999999 999999 311 999999 
999999 999999 999999 999999 999999 999999 999999 999999 999999 999999 999999 999999 999999 312 999999 999999 999999 999999 314 999999 999999 999999 999999 316 999999 999999 999999 999999 315 999999 999999 999999 999999 312 999999 999999 999999 999999 316 999999 999999 999999 999999 308 999999 999999 999999 999999 312 999999 999999 999999 999999 0 999999 999999 999999 999999 315 999999 999999 999999 999999 309 
999999 999999 999999 999999 999999 309 999999 999999 999999 312 999999 999999 999999 999999 314 999999 999999 999999 999999 316 999999 999999 999999 999999 315 999999 999999 999999 999999 312 999999 999999 999999 999999 316 999999 999999 999999 999999 308 999999 999999 999999 999999 312 999999 999999 999999 999999 0 999999 999999 999999 999999 315 999999 999999 999999 999999 309 999999 999999 999999 999999 
999999 999999 999999 999999 999999 999999 315 999999 999999 999999 307 999999 999999 999999 999999 309 999999 999999 999999 999999 305 999999 999999 999999 999999 310 999999 999999 999999 999999 309 999999 999999 999999 999999 309 999999 999999 999999 999999 315 999999 999999 999999 999999 307 999999 999999 999999 999999 315 999999 999999 999999 999999 0 999999 999999 999999 999999 315 999999 999999 999999 
999999 999999 999999 999999 999999 999999 999999 310 999999 999999 999999 307 999999 999999 999999 999999 309 999999 999999 999999 999999 305 999999 999999 999999 999999 310 999999 999999 999999 999999 309 999999 999999 999999 999999 309 999999 999999 999999 999999 315 999999 999999 999999 999999 307 999999 999999 999999 999999 315 999999 999999 999999 999999 0 999999 999999 999999 999999 310 999999 999999 
999999 999999 999999 999999 999999 999999 999999 999999 310 999999 999999 999999 307 999999 999999 999999 999999 309 999999 999999 999999 999999 305 999999 999999 999999 999999 310 999999 999999 999999 999999 309 999999 999999 999999 999999 309 999999 999999 999999 999999 315 999999 999999 999999 999999 307 999999 999999 999999 999999 315 999999 999999 999999 999999 0 999999 999999 999999 999999 310 999999 
999999 999999 999999 999999 999999 999999 999999 999999 999999 999999 999999 999999 999999 307 999999 999999 999999 999999 309 999999 999999 999999 999999 305 999999 999999 999999 999999 310 999999 999999 999999 999999 309 999999 999999 999999 999999 309 999999 999999 999999 999999 315 999999 999999 999999 999999 307 999999 999999 999999 999999 315 999999 999999 999999 999999 0 999999 999999 999999 999999 310 
999999 999999 999999 999999 999999 310 999999 999999 999999 307 999999 999999 999999 999999 309 999999 999999 999999 999999 305 999999 999999 999999 999999 310 999999 999999 999999 999999 309 999999 999999 999999 999999 309 999999 999999 999999 999999 315 999999 999999 999999 999999 307 999999 999999 999999 999999 315 999999 999999 999999 999999 0 999999 999999 999999 999999 310 999999 999999 999999 999999 
0 0 0 0 0 999999 999999 999999 999999 999999 999999 999999 999999 999999 999999 999999 999999 999999 999999 999999 999999 999999 999999 999999 999999 999999 999999 999999 999999 999999 999999 999999 999999 999999 999999 999999 999999 999999 999999 999999 999999 999999 999999 999999 999999 999999 999999 999999 999999 999999 999999 999999 999999 999999 999999 999999 999999 999999 999999 0 999999 999999 999999 999999 
0 0 0 0 0 999999 999999 999999 999999 999999 999999 999999 999999 999999 999999 999999 999999 999999 999999 999999 999999 999999 999999 999999 999999 999999 999999 999999 999999 999999 999999 999999 999999 999999 999999 999999 999999 999999 999999 999999 999999 999999 999999 999999 999999 999999 999999 999999 999999 999999 999999 999999 999999 999999 999999 999999 999999 999999 999999 999999 0 999999 999999 999999 
0 0 0 0 0 999999 999999 999999 999999 999999 999999 999999 999999 999999 999999 999999 999999 999999 999999 999999 999999 999999 999999 999999 999999 999999 999999 999999 999999 999999 999999 999999 999999 999999 999999 999999 999999 999999 999999 999999 999999 999999 999999 999999 999999 999999 999999 999999 999999 999999 999999 999999 999999 999999 999999 999999 999999 999999 999999 999999 999999 0 999999 999999 
0 0 0 0 0 999999 999999 999999 999999 999999 999999 999999 999999 999999 999999 999999 999999 999999 999999 999999 999999 999999 999999 999999 999999 999999 999999 999999 999999 999999 999999 999999 999999 999999 999999 999999 999999 999999 999999 999999 999999 999999 999999 999999 999999 999999 999999 999999 999999 999999 999999 999999 999999 999999 999999 999999 999999 999999 999999 999999 999999 999999 0 999999 
0 0 0 0 0 999999 999999 999999 999999 999999 999999 999999 999999 999999 999999 999999 999999 999999 999999 999999 999999 999999 999999 999999 999999 999999 999999 999999 999999 999999 999999 999999 999999 999999 999999 999999 999999 999999 999999 999999 999999 999999 999999 999999 999999 999999 999999 999999 999999 999999 999999 999999 999999 999999 999999 999999 999999 999999 999999 999999 999999 999999 999999 0 
