runtime_files/mcpf.tour
NAME : mtspf.5821.tour
COMMENT : Length = 5821
COMMENT : Found by LKH [Keld Helsgaun] Wed Nov 16 23:18:41 2022
TYPE : TOUR
DIMENSION : 64
TOUR_SECTION
1
35
36
37
38
39
25
26
27
28
29
30
31
32
33
34
6
60
3
47
48
49
45
46
57
58
59
55
56
22
23
24
20
21
12
13
14
10
11
17
18
19
15
16
8
62
2
41
42
43
44
40
7
61
5
54
50
51
52
53
64
4
9
63
-1
EOF
